c nIsolatedPIs 32
c maxPI 224
p cnf 822 1795
c gate 225 -103 -215 0
-103 -225 0
-215 -225 0
103 215 225 0
c gate 226 -102 -214 0
-102 -226 0
-214 -226 0
102 214 226 0
c gate 227 -100 -212 0
-100 -227 0
-212 -227 0
100 212 227 0
c gate 228 -101 -213 0
-101 -228 0
-213 -228 0
101 213 228 0
c gate 229 -227 -228 0
-227 -229 0
-228 -229 0
227 228 229 0
c gate 230 -98 -210 0
-98 -230 0
-210 -230 0
98 210 230 0
c gate 231 -99 -211 0
-99 -231 0
-211 -231 0
99 211 231 0
c gate 232 -230 -231 0
-230 -232 0
-231 -232 0
230 231 232 0
c gate 233 97 209 0
97 -233 0
209 -233 0
-97 -209 233 0
c gate 234 98 210 0
98 -234 0
210 -234 0
-98 -210 234 0
c gate 235 -233 -234 0
-233 -235 0
-234 -235 0
233 234 235 0
c gate 236 232 -235 0
232 -236 0
-235 -236 0
-232 235 236 0
c gate 237 100 212 0
100 -237 0
212 -237 0
-100 -212 237 0
c gate 238 99 211 0
99 -238 0
211 -238 0
-99 -211 238 0
c gate 239 -237 -238 0
-237 -239 0
-238 -239 0
237 238 239 0
c gate 240 -236 239 0
-236 -240 0
239 -240 0
236 -239 240 0
c gate 241 229 -240 0
229 -241 0
-240 -241 0
-229 240 241 0
c gate 242 101 213 0
101 -242 0
213 -242 0
-101 -213 242 0
c gate 243 -241 -242 0
-241 -243 0
-242 -243 0
241 242 243 0
c gate 244 -96 -208 0
-96 -244 0
-208 -244 0
96 208 244 0
c gate 245 -95 -207 0
-95 -245 0
-207 -245 0
95 207 245 0
c gate 246 -94 -206 0
-94 -246 0
-206 -246 0
94 206 246 0
c gate 247 -245 -246 0
-245 -247 0
-246 -247 0
245 246 247 0
c gate 248 -92 -204 0
-92 -248 0
-204 -248 0
92 204 248 0
c gate 249 91 203 0
91 -249 0
203 -249 0
-91 -203 249 0
c gate 250 92 204 0
92 -250 0
204 -250 0
-92 -204 250 0
c gate 251 -249 -250 0
-249 -251 0
-250 -251 0
249 250 251 0
c gate 252 -248 -251 0
-248 -252 0
-251 -252 0
248 251 252 0
c gate 253 90 202 0
90 -253 0
202 -253 0
-90 -202 253 0
c gate 254 89 201 0
89 -254 0
201 -254 0
-89 -201 254 0
c gate 255 -253 -254 0
-253 -255 0
-254 -255 0
253 254 255 0
c gate 256 -90 -202 0
-90 -256 0
-202 -256 0
90 202 256 0
c gate 257 -91 -203 0
-91 -257 0
-203 -257 0
91 203 257 0
c gate 258 -248 -257 0
-248 -258 0
-257 -258 0
248 257 258 0
c gate 259 -256 258 0
-256 -259 0
258 -259 0
256 -258 259 0
c gate 260 251 259 0
251 -260 0
259 -260 0
-251 -259 260 0
c gate 261 -255 260 0
-255 -261 0
260 -261 0
255 -260 261 0
c gate 262 -252 -261 0
-252 -262 0
-261 -262 0
252 261 262 0
c gate 263 -93 -205 0
-93 -263 0
-205 -263 0
93 205 263 0
c gate 264 -262 -263 0
-262 -264 0
-263 -264 0
262 263 264 0
c gate 265 93 205 0
93 -265 0
205 -265 0
-93 -205 265 0
c gate 266 94 206 0
94 -266 0
206 -266 0
-94 -206 266 0
c gate 267 -265 -266 0
-265 -267 0
-266 -267 0
265 266 267 0
c gate 268 -264 267 0
-264 -268 0
267 -268 0
264 -267 268 0
c gate 269 247 -268 0
247 -269 0
-268 -269 0
-247 268 269 0
c gate 270 96 208 0
96 -270 0
208 -270 0
-96 -208 270 0
c gate 271 95 207 0
95 -271 0
207 -271 0
-95 -207 271 0
c gate 272 -270 -271 0
-270 -272 0
-271 -272 0
270 271 272 0
c gate 273 -269 272 0
-269 -273 0
272 -273 0
269 -272 273 0
c gate 274 -244 -273 0
-244 -274 0
-273 -274 0
244 273 274 0
c gate 275 -97 -209 0
-97 -275 0
-209 -275 0
97 209 275 0
c gate 276 229 -275 0
229 -276 0
-275 -276 0
-229 275 276 0
c gate 277 232 276 0
232 -277 0
276 -277 0
-232 -276 277 0
c gate 278 240 277 0
240 -278 0
277 -278 0
-240 -277 278 0
c gate 279 274 278 0
274 -279 0
278 -279 0
-274 -278 279 0
c gate 280 243 -279 0
243 -280 0
-279 -280 0
-243 279 280 0
c gate 281 -226 -280 0
-226 -281 0
-280 -281 0
226 280 281 0
c gate 282 103 215 0
103 -282 0
215 -282 0
-103 -215 282 0
c gate 283 102 214 0
102 -283 0
214 -283 0
-102 -214 283 0
c gate 284 -282 -283 0
-282 -284 0
-283 -284 0
282 283 284 0
c gate 285 -281 284 0
-281 -285 0
284 -285 0
281 -284 285 0
c gate 286 -225 -285 0
-225 -286 0
-285 -286 0
225 285 286 0
c gate 287 -225 -226 0
-225 -287 0
-226 -287 0
225 226 287 0
c gate 288 243 -283 0
243 -288 0
-283 -288 0
-243 283 288 0
c gate 289 287 -288 0
287 -289 0
-288 -289 0
-287 288 289 0
c gate 290 -282 -289 0
-282 -290 0
-289 -290 0
282 289 290 0
c gate 291 88 200 0
88 -291 0
200 -291 0
-88 -200 291 0
c gate 292 87 199 0
87 -292 0
199 -292 0
-87 -199 292 0
c gate 293 -291 -292 0
-291 -293 0
-292 -293 0
291 292 293 0
c gate 294 -87 -199 0
-87 -294 0
-199 -294 0
87 199 294 0
c gate 295 -86 -198 0
-86 -295 0
-198 -295 0
86 198 295 0
c gate 296 -294 -295 0
-294 -296 0
-295 -296 0
294 295 296 0
c gate 297 86 198 0
86 -297 0
198 -297 0
-86 -198 297 0
c gate 298 85 197 0
85 -298 0
197 -298 0
-85 -197 298 0
c gate 299 -297 -298 0
-297 -299 0
-298 -299 0
297 298 299 0
c gate 300 -85 -197 0
-85 -300 0
-197 -300 0
85 197 300 0
c gate 301 -84 -196 0
-84 -301 0
-196 -301 0
84 196 301 0
c gate 302 83 195 0
83 -302 0
195 -302 0
-83 -195 302 0
c gate 303 84 196 0
84 -303 0
196 -303 0
-84 -196 303 0
c gate 304 -302 -303 0
-302 -304 0
-303 -304 0
302 303 304 0
c gate 305 -82 -194 0
-82 -305 0
-194 -305 0
82 194 305 0
c gate 306 -83 -195 0
-83 -306 0
-195 -306 0
83 195 306 0
c gate 307 -305 -306 0
-305 -307 0
-306 -307 0
305 306 307 0
c gate 308 81 193 0
81 -308 0
193 -308 0
-81 -193 308 0
c gate 309 82 194 0
82 -309 0
194 -309 0
-82 -194 309 0
c gate 310 -308 -309 0
-308 -310 0
-309 -310 0
308 309 310 0
c gate 311 307 -310 0
307 -311 0
-310 -311 0
-307 310 311 0
c gate 312 304 -311 0
304 -312 0
-311 -312 0
-304 311 312 0
c gate 313 -301 -312 0
-301 -313 0
-312 -313 0
301 312 313 0
c gate 314 80 192 0
80 -314 0
192 -314 0
-80 -192 314 0
c gate 315 79 191 0
79 -315 0
191 -315 0
-79 -191 315 0
c gate 316 -314 -315 0
-314 -316 0
-315 -316 0
314 315 316 0
c gate 317 -79 -191 0
-79 -317 0
-191 -317 0
79 191 317 0
c gate 318 78 190 0
78 -318 0
190 -318 0
-78 -190 318 0
c gate 319 -77 -189 0
-77 -319 0
-189 -319 0
77 189 319 0
c gate 320 -78 -190 0
-78 -320 0
-190 -320 0
78 190 320 0
c gate 321 -319 -320 0
-319 -321 0
-320 -321 0
319 320 321 0
c gate 322 77 189 0
77 -322 0
189 -322 0
-77 -189 322 0
c gate 323 -76 -188 0
-76 -323 0
-188 -323 0
76 188 323 0
c gate 324 -75 -187 0
-75 -324 0
-187 -324 0
75 187 324 0
c gate 325 -74 -186 0
-74 -325 0
-186 -325 0
74 186 325 0
c gate 326 -324 -325 0
-324 -326 0
-325 -326 0
324 325 326 0
c gate 327 73 185 0
73 -327 0
185 -327 0
-73 -185 327 0
c gate 328 74 186 0
74 -328 0
186 -328 0
-74 -186 328 0
c gate 329 -327 -328 0
-327 -329 0
-328 -329 0
327 328 329 0
c gate 330 326 -329 0
326 -330 0
-329 -330 0
-326 329 330 0
c gate 331 76 188 0
76 -331 0
188 -331 0
-76 -188 331 0
c gate 332 75 187 0
75 -332 0
187 -332 0
-75 -187 332 0
c gate 333 -331 -332 0
-331 -333 0
-332 -333 0
331 332 333 0
c gate 334 -330 333 0
-330 -334 0
333 -334 0
330 -333 334 0
c gate 335 -323 -334 0
-323 -335 0
-334 -335 0
323 334 335 0
c gate 336 -322 -335 0
-322 -336 0
-335 -336 0
322 335 336 0
c gate 337 -72 -184 0
-72 -337 0
-184 -337 0
72 184 337 0
c gate 338 71 183 0
71 -338 0
183 -338 0
-71 -183 338 0
c gate 339 72 184 0
72 -339 0
184 -339 0
-72 -184 339 0
c gate 340 -338 -339 0
-338 -340 0
-339 -340 0
338 339 340 0
c gate 341 -337 -340 0
-337 -341 0
-340 -341 0
337 340 341 0
c gate 342 -69 -181 0
-69 -342 0
-181 -342 0
69 181 342 0
c gate 343 66 178 0
66 -343 0
178 -343 0
-66 -178 343 0
c gate 344 -61 -173 0
-61 -344 0
-173 -344 0
61 173 344 0
c gate 345 -63 -175 0
-63 -345 0
-175 -345 0
63 175 345 0
c gate 346 -62 -174 0
-62 -346 0
-174 -346 0
62 174 346 0
c gate 347 -64 -176 0
-64 -347 0
-176 -347 0
64 176 347 0
c gate 348 -346 -347 0
-346 -348 0
-347 -348 0
346 347 348 0
c gate 349 -345 348 0
-345 -349 0
348 -349 0
345 -348 349 0
c gate 350 -344 349 0
-344 -350 0
349 -350 0
344 -349 350 0
c gate 351 -60 -172 0
-60 -351 0
-172 -351 0
60 172 351 0
c gate 352 57 169 0
57 -352 0
169 -352 0
-57 -169 352 0
c gate 353 58 170 0
58 -353 0
170 -353 0
-58 -170 353 0
c gate 354 -352 -353 0
-352 -354 0
-353 -354 0
352 353 354 0
c gate 355 -58 -170 0
-58 -355 0
-170 -355 0
58 170 355 0
c gate 356 -59 -171 0
-59 -356 0
-171 -356 0
59 171 356 0
c gate 357 -355 -356 0
-355 -357 0
-356 -357 0
355 356 357 0
c gate 358 -354 357 0
-354 -358 0
357 -358 0
354 -357 358 0
c gate 359 59 171 0
59 -359 0
171 -359 0
-59 -171 359 0
c gate 360 60 172 0
60 -360 0
172 -360 0
-60 -172 360 0
c gate 361 -359 -360 0
-359 -361 0
-360 -361 0
359 360 361 0
c gate 362 -358 361 0
-358 -362 0
361 -362 0
358 -361 362 0
c gate 363 -351 -362 0
-351 -363 0
-362 -363 0
351 362 363 0
c gate 364 -47 -159 0
-47 -364 0
-159 -364 0
47 159 364 0
c gate 365 -46 -158 0
-46 -365 0
-158 -365 0
46 158 365 0
c gate 366 -364 -365 0
-364 -366 0
-365 -366 0
364 365 366 0
c gate 367 -45 -157 0
-45 -367 0
-157 -367 0
45 157 367 0
c gate 368 366 -367 0
366 -368 0
-367 -368 0
-366 367 368 0
c gate 369 45 157 0
45 -369 0
157 -369 0
-45 -157 369 0
c gate 370 46 158 0
46 -370 0
158 -370 0
-46 -158 370 0
c gate 371 -369 -370 0
-369 -371 0
-370 -371 0
369 370 371 0
c gate 372 44 156 0
44 -372 0
156 -372 0
-44 -156 372 0
c gate 373 43 155 0
43 -373 0
155 -373 0
-43 -155 373 0
c gate 374 -42 -154 0
-42 -374 0
-154 -374 0
42 154 374 0
c gate 375 42 154 0
42 -375 0
154 -375 0
-42 -154 375 0
c gate 376 41 153 0
41 -376 0
153 -376 0
-41 -153 376 0
c gate 377 -375 -376 0
-375 -377 0
-376 -377 0
375 376 377 0
c gate 378 -374 -377 0
-374 -378 0
-377 -378 0
374 377 378 0
c gate 379 -373 -378 0
-373 -379 0
-378 -379 0
373 378 379 0
c gate 380 -43 -155 0
-43 -380 0
-155 -380 0
43 155 380 0
c gate 381 -44 -156 0
-44 -381 0
-156 -381 0
44 156 381 0
c gate 382 -380 -381 0
-380 -382 0
-381 -382 0
380 381 382 0
c gate 383 -379 382 0
-379 -383 0
382 -383 0
379 -382 383 0
c gate 384 -372 -383 0
-372 -384 0
-383 -384 0
372 383 384 0
c gate 385 -41 -153 0
-41 -385 0
-153 -385 0
41 153 385 0
c gate 386 -374 -385 0
-374 -386 0
-385 -386 0
374 385 386 0
c gate 387 -36 -148 0
-36 -387 0
-148 -387 0
36 148 387 0
c gate 388 36 148 0
36 -388 0
148 -388 0
-36 -148 388 0
c gate 389 35 147 0
35 -389 0
147 -389 0
-35 -147 389 0
c gate 390 -388 -389 0
-388 -390 0
-389 -390 0
388 389 390 0
c gate 391 -387 -390 0
-387 -391 0
-390 -391 0
387 390 391 0
c gate 392 -35 -147 0
-35 -392 0
-147 -392 0
35 147 392 0
c gate 393 -387 -392 0
-387 -393 0
-392 -393 0
387 392 393 0
c gate 394 -34 -146 0
-34 -394 0
-146 -394 0
34 146 394 0
c gate 395 33 145 0
33 -395 0
145 -395 0
-33 -145 395 0
c gate 396 34 146 0
34 -396 0
146 -396 0
-34 -146 396 0
c gate 397 -395 -396 0
-395 -397 0
-396 -397 0
395 396 397 0
c gate 398 -394 -397 0
-394 -398 0
-397 -398 0
394 397 398 0
c gate 399 24 136 0
24 -399 0
136 -399 0
-24 -136 399 0
c gate 400 -24 -136 0
-24 -400 0
-136 -400 0
24 136 400 0
c gate 401 -23 -135 0
-23 -401 0
-135 -401 0
23 135 401 0
c gate 402 -22 -134 0
-22 -402 0
-134 -402 0
22 134 402 0
c gate 403 -401 -402 0
-401 -403 0
-402 -403 0
401 402 403 0
c gate 404 -21 -133 0
-21 -404 0
-133 -404 0
21 133 404 0
c gate 405 -20 -132 0
-20 -405 0
-132 -405 0
20 132 405 0
c gate 406 -404 -405 0
-404 -406 0
-405 -406 0
404 405 406 0
c gate 407 -19 -131 0
-19 -407 0
-131 -407 0
19 131 407 0
c gate 408 -18 -130 0
-18 -408 0
-130 -408 0
18 130 408 0
c gate 409 -407 -408 0
-407 -409 0
-408 -409 0
407 408 409 0
c gate 410 18 130 0
18 -410 0
130 -410 0
-18 -130 410 0
c gate 411 17 129 0
17 -411 0
129 -411 0
-17 -129 411 0
c gate 412 -410 -411 0
-410 -412 0
-411 -412 0
410 411 412 0
c gate 413 409 -412 0
409 -413 0
-412 -413 0
-409 412 413 0
c gate 414 19 131 0
19 -414 0
131 -414 0
-19 -131 414 0
c gate 415 20 132 0
20 -415 0
132 -415 0
-20 -132 415 0
c gate 416 -414 -415 0
-414 -416 0
-415 -416 0
414 415 416 0
c gate 417 -413 416 0
-413 -417 0
416 -417 0
413 -416 417 0
c gate 418 406 -417 0
406 -418 0
-417 -418 0
-406 417 418 0
c gate 419 22 134 0
22 -419 0
134 -419 0
-22 -134 419 0
c gate 420 21 133 0
21 -420 0
133 -420 0
-21 -133 420 0
c gate 421 -419 -420 0
-419 -421 0
-420 -421 0
419 420 421 0
c gate 422 -418 421 0
-418 -422 0
421 -422 0
418 -421 422 0
c gate 423 403 -422 0
403 -423 0
-422 -423 0
-403 422 423 0
c gate 424 23 135 0
23 -424 0
135 -424 0
-23 -135 424 0
c gate 425 -423 -424 0
-423 -425 0
-424 -425 0
423 424 425 0
c gate 426 -400 -425 0
-400 -426 0
-425 -426 0
400 425 426 0
c gate 427 -399 -426 0
-399 -427 0
-426 -427 0
399 426 427 0
c gate 428 2 114 0
2 -428 0
114 -428 0
-2 -114 428 0
c gate 429 1 113 0
1 -429 0
113 -429 0
-1 -113 429 0
c gate 430 -428 -429 0
-428 -430 0
-429 -430 0
428 429 430 0
c gate 431 -3 -115 0
-3 -431 0
-115 -431 0
3 115 431 0
c gate 432 -2 -114 0
-2 -432 0
-114 -432 0
2 114 432 0
c gate 433 -431 -432 0
-431 -433 0
-432 -433 0
431 432 433 0
c gate 434 -430 433 0
-430 -434 0
433 -434 0
430 -433 434 0
c gate 435 4 116 0
4 -435 0
116 -435 0
-4 -116 435 0
c gate 436 3 115 0
3 -436 0
115 -436 0
-3 -115 436 0
c gate 437 -435 -436 0
-435 -437 0
-436 -437 0
435 436 437 0
c gate 438 -434 437 0
-434 -438 0
437 -438 0
434 -437 438 0
c gate 439 -5 -117 0
-5 -439 0
-117 -439 0
5 117 439 0
c gate 440 -4 -116 0
-4 -440 0
-116 -440 0
4 116 440 0
c gate 441 -439 -440 0
-439 -441 0
-440 -441 0
439 440 441 0
c gate 442 -438 441 0
-438 -442 0
441 -442 0
438 -441 442 0
c gate 443 6 118 0
6 -443 0
118 -443 0
-6 -118 443 0
c gate 444 5 117 0
5 -444 0
117 -444 0
-5 -117 444 0
c gate 445 -443 -444 0
-443 -445 0
-444 -445 0
443 444 445 0
c gate 446 -442 445 0
-442 -446 0
445 -446 0
442 -445 446 0
c gate 447 -7 -119 0
-7 -447 0
-119 -447 0
7 119 447 0
c gate 448 -6 -118 0
-6 -448 0
-118 -448 0
6 118 448 0
c gate 449 -447 -448 0
-447 -449 0
-448 -449 0
447 448 449 0
c gate 450 -446 449 0
-446 -450 0
449 -450 0
446 -449 450 0
c gate 451 7 119 0
7 -451 0
119 -451 0
-7 -119 451 0
c gate 452 8 120 0
8 -452 0
120 -452 0
-8 -120 452 0
c gate 453 -451 -452 0
-451 -453 0
-452 -453 0
451 452 453 0
c gate 454 -450 453 0
-450 -454 0
453 -454 0
450 -453 454 0
c gate 455 -11 -123 0
-11 -455 0
-123 -455 0
11 123 455 0
c gate 456 -10 -122 0
-10 -456 0
-122 -456 0
10 122 456 0
c gate 457 -455 -456 0
-455 -457 0
-456 -457 0
455 456 457 0
c gate 458 -8 -120 0
-8 -458 0
-120 -458 0
8 120 458 0
c gate 459 -12 -124 0
-12 -459 0
-124 -459 0
12 124 459 0
c gate 460 -9 -121 0
-9 -460 0
-121 -460 0
9 121 460 0
c gate 461 -459 -460 0
-459 -461 0
-460 -461 0
459 460 461 0
c gate 462 -458 461 0
-458 -462 0
461 -462 0
458 -461 462 0
c gate 463 457 462 0
457 -463 0
462 -463 0
-457 -462 463 0
c gate 464 -454 463 0
-454 -464 0
463 -464 0
454 -463 464 0
c gate 465 12 124 0
12 -465 0
124 -465 0
-12 -124 465 0
c gate 466 9 121 0
9 -466 0
121 -466 0
-9 -121 466 0
c gate 467 10 122 0
10 -467 0
122 -467 0
-10 -122 467 0
c gate 468 -466 -467 0
-466 -468 0
-467 -468 0
466 467 468 0
c gate 469 457 -468 0
457 -469 0
-468 -469 0
-457 468 469 0
c gate 470 11 123 0
11 -470 0
123 -470 0
-11 -123 470 0
c gate 471 -469 -470 0
-469 -471 0
-470 -471 0
469 470 471 0
c gate 472 -465 471 0
-465 -472 0
471 -472 0
465 -471 472 0
c gate 473 -464 472 0
-464 -473 0
472 -473 0
464 -472 473 0
c gate 474 459 -471 0
459 -474 0
-471 -474 0
-459 471 474 0
c gate 475 -13 -125 0
-13 -475 0
-125 -475 0
13 125 475 0
c gate 476 -15 -127 0
-15 -476 0
-127 -476 0
15 127 476 0
c gate 477 -14 -126 0
-14 -477 0
-126 -477 0
14 126 477 0
c gate 478 -476 -477 0
-476 -478 0
-477 -478 0
476 477 478 0
c gate 479 -475 478 0
-475 -479 0
478 -479 0
475 -478 479 0
c gate 480 -474 479 0
-474 -480 0
479 -480 0
474 -479 480 0
c gate 481 -473 480 0
-473 -481 0
480 -481 0
473 -480 481 0
c gate 482 13 125 0
13 -482 0
125 -482 0
-13 -125 482 0
c gate 483 14 126 0
14 -483 0
126 -483 0
-14 -126 483 0
c gate 484 -482 -483 0
-482 -484 0
-483 -484 0
482 483 484 0
c gate 485 478 -484 0
478 -485 0
-484 -485 0
-478 484 485 0
c gate 486 15 127 0
15 -486 0
127 -486 0
-15 -127 486 0
c gate 487 16 128 0
16 -487 0
128 -487 0
-16 -128 487 0
c gate 488 -486 -487 0
-486 -488 0
-487 -488 0
486 487 488 0
c gate 489 -485 488 0
-485 -489 0
488 -489 0
485 -488 489 0
c gate 490 -481 489 0
-481 -490 0
489 -490 0
481 -489 490 0
c gate 491 -17 -129 0
-17 -491 0
-129 -491 0
17 129 491 0
c gate 492 -16 -128 0
-16 -492 0
-128 -492 0
16 128 492 0
c gate 493 -491 -492 0
-491 -493 0
-492 -493 0
491 492 493 0
c gate 494 406 493 0
406 -494 0
493 -494 0
-406 -493 494 0
c gate 495 409 494 0
409 -495 0
494 -495 0
-409 -494 495 0
c gate 496 417 495 0
417 -496 0
495 -496 0
-417 -495 496 0
c gate 497 -490 496 0
-490 -497 0
496 -497 0
490 -496 497 0
c gate 498 422 -497 0
422 -498 0
-497 -498 0
-422 497 498 0
c gate 499 -400 403 0
-400 -499 0
403 -499 0
400 -403 499 0
c gate 500 -498 499 0
-498 -500 0
499 -500 0
498 -499 500 0
c gate 501 427 -500 0
427 -501 0
-500 -501 0
-427 500 501 0
c gate 502 -29 -141 0
-29 -502 0
-141 -502 0
29 141 502 0
c gate 503 -30 -142 0
-30 -503 0
-142 -503 0
30 142 503 0
c gate 504 -502 -503 0
-502 -504 0
-503 -504 0
502 503 504 0
c gate 505 31 143 0
31 -505 0
143 -505 0
-31 -143 505 0
c gate 506 32 144 0
32 -506 0
144 -506 0
-32 -144 506 0
c gate 507 -505 -506 0
-505 -507 0
-506 -507 0
505 506 507 0
c gate 508 504 507 0
504 -508 0
507 -508 0
-504 -507 508 0
c gate 509 -32 -144 0
-32 -509 0
-144 -509 0
32 144 509 0
c gate 510 -31 -143 0
-31 -510 0
-143 -510 0
31 143 510 0
c gate 511 -509 -510 0
-509 -511 0
-510 -511 0
509 510 511 0
c gate 512 29 141 0
29 -512 0
141 -512 0
-29 -141 512 0
c gate 513 30 142 0
30 -513 0
142 -513 0
-30 -142 513 0
c gate 514 -512 -513 0
-512 -514 0
-513 -514 0
512 513 514 0
c gate 515 511 514 0
511 -515 0
514 -515 0
-511 -514 515 0
c gate 516 508 515 0
508 -516 0
515 -516 0
-508 -515 516 0
c gate 517 28 140 0
28 -517 0
140 -517 0
-28 -140 517 0
c gate 518 27 139 0
27 -518 0
139 -518 0
-27 -139 518 0
c gate 519 -517 -518 0
-517 -519 0
-518 -519 0
517 518 519 0
c gate 520 -27 -139 0
-27 -520 0
-139 -520 0
27 139 520 0
c gate 521 -28 -140 0
-28 -521 0
-140 -521 0
28 140 521 0
c gate 522 -520 -521 0
-520 -522 0
-521 -522 0
520 521 522 0
c gate 523 519 522 0
519 -523 0
522 -523 0
-519 -522 523 0
c gate 524 26 138 0
26 -524 0
138 -524 0
-26 -138 524 0
c gate 525 25 137 0
25 -525 0
137 -525 0
-25 -137 525 0
c gate 526 -524 -525 0
-524 -526 0
-525 -526 0
524 525 526 0
c gate 527 -25 -137 0
-25 -527 0
-137 -527 0
25 137 527 0
c gate 528 -26 -138 0
-26 -528 0
-138 -528 0
26 138 528 0
c gate 529 -527 -528 0
-527 -529 0
-528 -529 0
527 528 529 0
c gate 530 526 529 0
526 -530 0
529 -530 0
-526 -529 530 0
c gate 531 523 530 0
523 -531 0
530 -531 0
-523 -530 531 0
c gate 532 516 531 0
516 -532 0
531 -532 0
-516 -531 532 0
c gate 533 -501 532 0
-501 -533 0
532 -533 0
501 -532 533 0
c gate 534 -519 -521 0
-519 -534 0
-521 -534 0
519 521 534 0
c gate 535 -526 -528 0
-526 -535 0
-528 -535 0
526 528 535 0
c gate 536 523 535 0
523 -536 0
535 -536 0
-523 -535 536 0
c gate 537 -534 -536 0
-534 -537 0
-536 -537 0
534 536 537 0
c gate 538 516 -537 0
516 -538 0
-537 -538 0
-516 537 538 0
c gate 539 -503 -514 0
-503 -539 0
-514 -539 0
503 514 539 0
c gate 540 -505 -539 0
-505 -540 0
-539 -540 0
505 539 540 0
c gate 541 511 -540 0
511 -541 0
-540 -541 0
-511 540 541 0
c gate 542 -506 -541 0
-506 -542 0
-541 -542 0
506 541 542 0
c gate 543 -538 542 0
-538 -543 0
542 -543 0
538 -542 543 0
c gate 544 -533 543 0
-533 -544 0
543 -544 0
533 -543 544 0
c gate 545 -33 -145 0
-33 -545 0
-145 -545 0
33 145 545 0
c gate 546 -394 -545 0
-394 -546 0
-545 -546 0
394 545 546 0
c gate 547 397 546 0
397 -547 0
546 -547 0
-397 -546 547 0
c gate 548 -544 547 0
-544 -548 0
547 -548 0
544 -547 548 0
c gate 549 -398 -548 0
-398 -549 0
-548 -549 0
398 548 549 0
c gate 550 390 -549 0
390 -550 0
-549 -550 0
-390 549 550 0
c gate 551 393 550 0
393 -551 0
550 -551 0
-393 -550 551 0
c gate 552 -391 -551 0
-391 -552 0
-551 -552 0
391 551 552 0
c gate 553 38 150 0
38 -553 0
150 -553 0
-38 -150 553 0
c gate 554 37 149 0
37 -554 0
149 -554 0
-37 -149 554 0
c gate 555 -553 -554 0
-553 -555 0
-554 -555 0
553 554 555 0
c gate 556 -37 -149 0
-37 -556 0
-149 -556 0
37 149 556 0
c gate 557 -40 -152 0
-40 -557 0
-152 -557 0
40 152 557 0
c gate 558 -556 -557 0
-556 -558 0
-557 -558 0
556 557 558 0
c gate 559 555 558 0
555 -559 0
558 -559 0
-555 -558 559 0
c gate 560 -39 -151 0
-39 -560 0
-151 -560 0
39 151 560 0
c gate 561 -38 -150 0
-38 -561 0
-150 -561 0
38 150 561 0
c gate 562 -560 -561 0
-560 -562 0
-561 -562 0
560 561 562 0
c gate 563 39 151 0
39 -563 0
151 -563 0
-39 -151 563 0
c gate 564 40 152 0
40 -564 0
152 -564 0
-40 -152 564 0
c gate 565 -563 -564 0
-563 -565 0
-564 -565 0
563 564 565 0
c gate 566 562 565 0
562 -566 0
565 -566 0
-562 -565 566 0
c gate 567 559 566 0
559 -567 0
566 -567 0
-559 -566 567 0
c gate 568 -552 567 0
-552 -568 0
567 -568 0
552 -567 568 0
c gate 569 -555 562 0
-555 -569 0
562 -569 0
555 -562 569 0
c gate 570 565 -569 0
565 -570 0
-569 -570 0
-565 569 570 0
c gate 571 -557 -570 0
-557 -571 0
-570 -571 0
557 570 571 0
c gate 572 -568 -571 0
-568 -572 0
-571 -572 0
568 571 572 0
c gate 573 377 -572 0
377 -573 0
-572 -573 0
-377 572 573 0
c gate 574 386 573 0
386 -574 0
573 -574 0
-386 -573 574 0
c gate 575 -373 382 0
-373 -575 0
382 -575 0
373 -382 575 0
c gate 576 574 575 0
574 -576 0
575 -576 0
-574 -575 576 0
c gate 577 384 -576 0
384 -577 0
-576 -577 0
-384 576 577 0
c gate 578 371 -577 0
371 -578 0
-577 -578 0
-371 577 578 0
c gate 579 368 578 0
368 -579 0
578 -579 0
-368 -578 579 0
c gate 580 366 -371 0
366 -580 0
-371 -580 0
-366 371 580 0
c gate 581 47 159 0
47 -581 0
159 -581 0
-47 -159 581 0
c gate 582 48 160 0
48 -582 0
160 -582 0
-48 -160 582 0
c gate 583 -581 -582 0
-581 -583 0
-582 -583 0
581 582 583 0
c gate 584 -580 583 0
-580 -584 0
583 -584 0
580 -583 584 0
c gate 585 -579 584 0
-579 -585 0
584 -585 0
579 -584 585 0
c gate 586 -49 -161 0
-49 -586 0
-161 -586 0
49 161 586 0
c gate 587 -48 -160 0
-48 -587 0
-160 -587 0
48 160 587 0
c gate 588 -586 -587 0
-586 -588 0
-587 -588 0
586 587 588 0
c gate 589 -585 588 0
-585 -589 0
588 -589 0
585 -588 589 0
c gate 590 49 161 0
49 -590 0
161 -590 0
-49 -161 590 0
c gate 591 50 162 0
50 -591 0
162 -591 0
-50 -162 591 0
c gate 592 -590 -591 0
-590 -592 0
-591 -592 0
590 591 592 0
c gate 593 -589 592 0
-589 -593 0
592 -593 0
589 -592 593 0
c gate 594 -51 -163 0
-51 -594 0
-163 -594 0
51 163 594 0
c gate 595 -50 -162 0
-50 -595 0
-162 -595 0
50 162 595 0
c gate 596 -594 -595 0
-594 -596 0
-595 -596 0
594 595 596 0
c gate 597 -593 596 0
-593 -597 0
596 -597 0
593 -596 597 0
c gate 598 51 163 0
51 -598 0
163 -598 0
-51 -163 598 0
c gate 599 52 164 0
52 -599 0
164 -599 0
-52 -164 599 0
c gate 600 -598 -599 0
-598 -600 0
-599 -600 0
598 599 600 0
c gate 601 -597 600 0
-597 -601 0
600 -601 0
597 -600 601 0
c gate 602 -56 -168 0
-56 -602 0
-168 -602 0
56 168 602 0
c gate 603 -55 -167 0
-55 -603 0
-167 -603 0
55 167 603 0
c gate 604 -602 -603 0
-602 -604 0
-603 -604 0
602 603 604 0
c gate 605 -52 -164 0
-52 -605 0
-164 -605 0
52 164 605 0
c gate 606 -54 -166 0
-54 -606 0
-166 -606 0
54 166 606 0
c gate 607 -53 -165 0
-53 -607 0
-165 -607 0
53 165 607 0
c gate 608 -606 -607 0
-606 -608 0
-607 -608 0
606 607 608 0
c gate 609 -605 608 0
-605 -609 0
608 -609 0
605 -608 609 0
c gate 610 604 609 0
604 -610 0
609 -610 0
-604 -609 610 0
c gate 611 -601 610 0
-601 -611 0
610 -611 0
601 -610 611 0
c gate 612 56 168 0
56 -612 0
168 -612 0
-56 -168 612 0
c gate 613 53 165 0
53 -613 0
165 -613 0
-53 -165 613 0
c gate 614 -606 613 0
-606 -614 0
613 -614 0
606 -613 614 0
c gate 615 55 167 0
55 -615 0
167 -615 0
-55 -167 615 0
c gate 616 54 166 0
54 -616 0
166 -616 0
-54 -166 616 0
c gate 617 -615 -616 0
-615 -617 0
-616 -617 0
615 616 617 0
c gate 618 -614 617 0
-614 -618 0
617 -618 0
614 -617 618 0
c gate 619 604 -618 0
604 -619 0
-618 -619 0
-604 618 619 0
c gate 620 -612 -619 0
-612 -620 0
-619 -620 0
612 619 620 0
c gate 621 -611 620 0
-611 -621 0
620 -621 0
611 -620 621 0
c gate 622 -57 -169 0
-57 -622 0
-169 -622 0
57 169 622 0
c gate 623 -351 -622 0
-351 -623 0
-622 -623 0
351 622 623 0
c gate 624 357 623 0
357 -624 0
623 -624 0
-357 -623 624 0
c gate 625 362 624 0
362 -625 0
624 -625 0
-362 -624 625 0
c gate 626 -621 625 0
-621 -626 0
625 -626 0
621 -625 626 0
c gate 627 -363 -626 0
-363 -627 0
-626 -627 0
363 626 627 0
c gate 628 350 -627 0
350 -628 0
-627 -628 0
-350 627 628 0
c gate 629 61 173 0
61 -629 0
173 -629 0
-61 -173 629 0
c gate 630 62 174 0
62 -630 0
174 -630 0
-62 -174 630 0
c gate 631 -629 -630 0
-629 -631 0
-630 -631 0
629 630 631 0
c gate 632 349 -631 0
349 -632 0
-631 -632 0
-349 631 632 0
c gate 633 64 176 0
64 -633 0
176 -633 0
-64 -176 633 0
c gate 634 63 175 0
63 -634 0
175 -634 0
-63 -175 634 0
c gate 635 -347 634 0
-347 -635 0
634 -635 0
347 -634 635 0
c gate 636 -633 -635 0
-633 -636 0
-635 -636 0
633 635 636 0
c gate 637 -632 636 0
-632 -637 0
636 -637 0
632 -636 637 0
c gate 638 -628 637 0
-628 -638 0
637 -638 0
628 -637 638 0
c gate 639 -343 -638 0
-343 -639 0
-638 -639 0
343 638 639 0
c gate 640 65 177 0
65 -640 0
177 -640 0
-65 -177 640 0
c gate 641 -65 -177 0
-65 -641 0
-177 -641 0
65 177 641 0
c gate 642 -66 -178 0
-66 -642 0
-178 -642 0
66 178 642 0
c gate 643 -641 -642 0
-641 -643 0
-642 -643 0
641 642 643 0
c gate 644 -640 643 0
-640 -644 0
643 -644 0
640 -643 644 0
c gate 645 639 644 0
639 -645 0
644 -645 0
-639 -644 645 0
c gate 646 67 179 0
67 -646 0
179 -646 0
-67 -179 646 0
c gate 647 68 180 0
68 -647 0
180 -647 0
-68 -180 647 0
c gate 648 -646 -647 0
-646 -648 0
-647 -648 0
646 647 648 0
c gate 649 -67 -179 0
-67 -649 0
-179 -649 0
67 179 649 0
c gate 650 -68 -180 0
-68 -650 0
-180 -650 0
68 180 650 0
c gate 651 -649 -650 0
-649 -651 0
-650 -651 0
649 650 651 0
c gate 652 648 651 0
648 -652 0
651 -652 0
-648 -651 652 0
c gate 653 645 652 0
645 -653 0
652 -653 0
-645 -652 653 0
c gate 654 -342 653 0
-342 -654 0
653 -654 0
342 -653 654 0
c gate 655 -343 -640 0
-343 -655 0
-640 -655 0
343 640 655 0
c gate 656 -642 -655 0
-642 -656 0
-655 -656 0
642 655 656 0
c gate 657 -649 656 0
-649 -657 0
656 -657 0
649 -656 657 0
c gate 658 648 -657 0
648 -658 0
-657 -658 0
-648 657 658 0
c gate 659 -650 -658 0
-650 -659 0
-658 -659 0
650 658 659 0
c gate 660 -342 659 0
-342 -660 0
659 -660 0
342 -659 660 0
c gate 661 70 182 0
70 -661 0
182 -661 0
-70 -182 661 0
c gate 662 69 181 0
69 -662 0
181 -662 0
-69 -181 662 0
c gate 663 -661 -662 0
-661 -663 0
-662 -663 0
661 662 663 0
c gate 664 -660 663 0
-660 -664 0
663 -664 0
660 -663 664 0
c gate 665 -654 664 0
-654 -665 0
664 -665 0
654 -664 665 0
c gate 666 -70 -182 0
-70 -666 0
-182 -666 0
70 182 666 0
c gate 667 -71 -183 0
-71 -667 0
-183 -667 0
71 183 667 0
c gate 668 -337 -667 0
-337 -668 0
-667 -668 0
337 667 668 0
c gate 669 -666 668 0
-666 -669 0
668 -669 0
666 -668 669 0
c gate 670 340 669 0
340 -670 0
669 -670 0
-340 -669 670 0
c gate 671 -665 670 0
-665 -671 0
670 -671 0
665 -670 671 0
c gate 672 -341 -671 0
-341 -672 0
-671 -672 0
341 671 672 0
c gate 673 -73 -185 0
-73 -673 0
-185 -673 0
73 185 673 0
c gate 674 -323 -673 0
-323 -674 0
-673 -674 0
323 673 674 0
c gate 675 326 674 0
326 -675 0
674 -675 0
-326 -674 675 0
c gate 676 334 675 0
334 -676 0
675 -676 0
-334 -675 676 0
c gate 677 -672 676 0
-672 -677 0
676 -677 0
672 -676 677 0
c gate 678 336 -677 0
336 -678 0
-677 -678 0
-336 677 678 0
c gate 679 321 -678 0
321 -679 0
-678 -679 0
-321 678 679 0
c gate 680 -318 -679 0
-318 -680 0
-679 -680 0
318 679 680 0
c gate 681 -317 -680 0
-317 -681 0
-680 -681 0
317 680 681 0
c gate 682 316 -681 0
316 -682 0
-681 -682 0
-316 681 682 0
c gate 683 -80 -192 0
-80 -683 0
-192 -683 0
80 192 683 0
c gate 684 -301 -683 0
-301 -684 0
-683 -684 0
301 683 684 0
c gate 685 -309 684 0
-309 -685 0
684 -685 0
309 -684 685 0
c gate 686 -81 -193 0
-81 -686 0
-193 -686 0
81 193 686 0
c gate 687 -308 -686 0
-308 -687 0
-686 -687 0
308 686 687 0
c gate 688 307 687 0
307 -688 0
687 -688 0
-307 -687 688 0
c gate 689 304 688 0
304 -689 0
688 -689 0
-304 -688 689 0
c gate 690 685 689 0
685 -690 0
689 -690 0
-685 -689 690 0
c gate 691 -682 690 0
-682 -691 0
690 -691 0
682 -690 691 0
c gate 692 -313 -691 0
-313 -692 0
-691 -692 0
313 691 692 0
c gate 693 -300 -692 0
-300 -693 0
-692 -693 0
300 692 693 0
c gate 694 299 -693 0
299 -694 0
-693 -694 0
-299 693 694 0
c gate 695 296 -694 0
296 -695 0
-694 -695 0
-296 694 695 0
c gate 696 293 -695 0
293 -696 0
-695 -696 0
-293 695 696 0
c gate 697 -89 -201 0
-89 -697 0
-201 -697 0
89 201 697 0
c gate 698 -88 -200 0
-88 -698 0
-200 -698 0
88 200 698 0
c gate 699 -263 -698 0
-263 -699 0
-698 -699 0
263 698 699 0
c gate 700 -697 699 0
-697 -700 0
699 -700 0
697 -699 700 0
c gate 701 255 700 0
255 -701 0
700 -701 0
-255 -700 701 0
c gate 702 260 701 0
260 -702 0
701 -702 0
-260 -701 702 0
c gate 703 -696 702 0
-696 -703 0
702 -703 0
696 -702 703 0
c gate 704 268 -703 0
268 -704 0
-703 -704 0
-268 703 704 0
c gate 705 -244 247 0
-244 -705 0
247 -705 0
244 -247 705 0
c gate 706 273 705 0
273 -706 0
705 -706 0
-273 -705 706 0
c gate 707 -704 706 0
-704 -707 0
706 -707 0
704 -706 707 0
c gate 708 -274 -707 0
-274 -708 0
-707 -708 0
274 707 708 0
c gate 709 278 287 0
278 -709 0
287 -709 0
-278 -287 709 0
c gate 710 -708 709 0
-708 -710 0
709 -710 0
708 -709 710 0
c gate 711 290 -710 0
290 -711 0
-710 -711 0
-290 710 711 0
c gate 712 286 711 0
286 -712 0
711 -712 0
-286 -711 712 0
c gate 713 -286 -711 0
-286 -713 0
-711 -713 0
286 711 713 0
c gate 714 -300 -698 0
-300 -714 0
-698 -714 0
300 698 714 0
c gate 715 293 714 0
293 -715 0
714 -715 0
-293 -714 715 0
c gate 716 296 299 0
296 -716 0
299 -716 0
-296 -299 716 0
c gate 717 715 716 0
715 -717 0
716 -717 0
-715 -716 717 0
c gate 718 690 717 0
690 -718 0
717 -718 0
-690 -717 718 0
c gate 719 321 -336 0
321 -719 0
-336 -719 0
-321 336 719 0
c gate 720 -318 -719 0
-318 -720 0
-719 -720 0
318 719 720 0
c gate 721 -317 -720 0
-317 -721 0
-720 -721 0
317 720 721 0
c gate 722 316 -683 0
316 -722 0
-683 -722 0
-316 683 722 0
c gate 723 -721 722 0
-721 -723 0
722 -723 0
721 -722 723 0
c gate 724 -718 -723 0
-718 -724 0
-723 -724 0
718 723 724 0
c gate 725 -682 -724 0
-682 -725 0
-724 -725 0
682 724 725 0
c gate 726 664 671 0
664 -726 0
671 -726 0
-664 -671 726 0
c gate 727 -340 669 0
-340 -727 0
669 -727 0
340 -669 727 0
c gate 728 -664 727 0
-664 -728 0
727 -728 0
664 -727 728 0
c gate 729 -726 -728 0
-726 -729 0
-728 -729 0
726 728 729 0
c gate 730 -341 -729 0
-341 -730 0
-729 -730 0
341 729 730 0
c gate 731 350 363 0
350 -731 0
363 -731 0
-350 -363 731 0
c gate 732 637 -731 0
637 -732 0
-731 -732 0
-637 731 732 0
c gate 733 644 -732 0
644 -733 0
-732 -733 0
-644 732 733 0
c gate 734 -639 733 0
-639 -734 0
733 -734 0
639 -733 734 0
c gate 735 645 732 0
645 -735 0
732 -735 0
-645 -732 735 0
c gate 736 -734 -735 0
-734 -736 0
-735 -736 0
734 735 736 0
c gate 737 -656 -736 0
-656 -737 0
-736 -737 0
656 736 737 0
c gate 738 -343 652 0
-343 -738 0
652 -738 0
343 -652 738 0
c gate 739 733 738 0
733 -739 0
738 -739 0
-733 -738 739 0
c gate 740 -659 -739 0
-659 -740 0
-739 -740 0
659 739 740 0
c gate 741 653 740 0
653 -741 0
740 -741 0
-653 -740 741 0
c gate 742 628 732 0
628 -742 0
732 -742 0
-628 -732 742 0
c gate 743 -384 579 0
-384 -743 0
579 -743 0
384 -579 743 0
c gate 744 384 -578 0
384 -744 0
-578 -744 0
-384 578 744 0
c gate 745 368 -587 0
368 -745 0
-587 -745 0
-368 587 745 0
c gate 746 584 745 0
584 -746 0
745 -746 0
-584 -745 746 0
c gate 747 -744 746 0
-744 -747 0
746 -747 0
744 -746 747 0
c gate 748 -743 747 0
-743 -748 0
747 -748 0
743 -747 748 0
c gate 749 -395 543 0
-395 -749 0
543 -749 0
395 -543 749 0
c gate 750 -396 546 0
-396 -750 0
546 -750 0
396 -546 750 0
c gate 751 -749 750 0
-749 -751 0
750 -751 0
749 -750 751 0
c gate 752 -389 -398 0
-389 -752 0
-398 -752 0
389 398 752 0
c gate 753 -751 752 0
-751 -753 0
752 -753 0
751 -752 753 0
c gate 754 -388 393 0
-388 -754 0
393 -754 0
388 -393 754 0
c gate 755 -753 754 0
-753 -755 0
754 -755 0
753 -754 755 0
c gate 756 -391 -755 0
-391 -756 0
-755 -756 0
391 755 756 0
c gate 757 567 -756 0
567 -757 0
-756 -757 0
-567 756 757 0
c gate 758 -376 -571 0
-376 -758 0
-571 -758 0
376 571 758 0
c gate 759 -757 758 0
-757 -759 0
758 -759 0
757 -758 759 0
c gate 760 -375 386 0
-375 -760 0
386 -760 0
375 -386 760 0
c gate 761 -759 760 0
-759 -761 0
760 -761 0
759 -760 761 0
c gate 762 -574 -761 0
-574 -762 0
-761 -762 0
574 761 762 0
c gate 763 573 761 0
573 -763 0
761 -763 0
-573 -761 763 0
c gate 764 -378 -763 0
-378 -764 0
-763 -764 0
378 763 764 0
c gate 765 -762 764 0
-762 -765 0
764 -765 0
762 -764 765 0
c gate 766 -551 -755 0
-551 -766 0
-755 -766 0
551 755 766 0
c gate 767 550 755 0
550 -767 0
755 -767 0
-550 -755 767 0
c gate 768 -391 -767 0
-391 -768 0
-767 -768 0
391 767 768 0
c gate 769 -766 768 0
-766 -769 0
768 -769 0
766 -768 769 0
c gate 770 -427 -532 0
-427 -770 0
-532 -770 0
427 532 770 0
c gate 771 -501 -770 0
-501 -771 0
-770 -771 0
501 770 771 0
c gate 772 104 216 0
104 -772 0
216 -772 0
-104 -216 772 0
c gate 773 290 -772 0
290 -773 0
-772 -773 0
-290 772 773 0
c gate 774 279 287 0
279 -774 0
287 -774 0
-279 -287 774 0
c gate 775 773 -774 0
773 -775 0
-774 -775 0
-773 774 775 0
c gate 776 -104 -216 0
-104 -776 0
-216 -776 0
104 216 776 0
c gate 777 112 224 0
112 -777 0
224 -777 0
-112 -224 777 0
c gate 778 -112 -224 0
-112 -778 0
-224 -778 0
112 224 778 0
c gate 779 -777 -778 0
-777 -779 0
-778 -779 0
777 778 779 0
c gate 780 -106 -218 0
-106 -780 0
-218 -780 0
106 218 780 0
c gate 781 -110 -222 0
-110 -781 0
-222 -781 0
110 222 781 0
c gate 782 -780 -781 0
-780 -782 0
-781 -782 0
780 781 782 0
c gate 783 779 782 0
779 -783 0
782 -783 0
-779 -782 783 0
c gate 784 109 -221 0
109 -784 0
-221 -784 0
-109 221 784 0
c gate 785 -109 221 0
-109 -785 0
221 -785 0
109 -221 785 0
c gate 786 -784 -785 0
-784 -786 0
-785 -786 0
784 785 786 0
c gate 787 111 223 0
111 -787 0
223 -787 0
-111 -223 787 0
c gate 788 105 217 0
105 -788 0
217 -788 0
-105 -217 788 0
c gate 789 -787 -788 0
-787 -789 0
-788 -789 0
787 788 789 0
c gate 790 -786 789 0
-786 -790 0
789 -790 0
786 -789 790 0
c gate 791 783 790 0
783 -791 0
790 -791 0
-783 -790 791 0
c gate 792 -111 -223 0
-111 -792 0
-223 -792 0
111 223 792 0
c gate 793 -105 -217 0
-105 -793 0
-217 -793 0
105 217 793 0
c gate 794 -792 -793 0
-792 -794 0
-793 -794 0
792 793 794 0
c gate 795 -108 -220 0
-108 -795 0
-220 -795 0
108 220 795 0
c gate 796 -107 -219 0
-107 -796 0
-219 -796 0
107 219 796 0
c gate 797 -795 -796 0
-795 -797 0
-796 -797 0
795 796 797 0
c gate 798 794 797 0
794 -798 0
797 -798 0
-794 -797 798 0
c gate 799 108 220 0
108 -799 0
220 -799 0
-108 -220 799 0
c gate 800 106 218 0
106 -800 0
218 -800 0
-106 -218 800 0
c gate 801 -799 -800 0
-799 -801 0
-800 -801 0
799 800 801 0
c gate 802 110 222 0
110 -802 0
222 -802 0
-110 -222 802 0
c gate 803 107 219 0
107 -803 0
219 -803 0
-107 -219 803 0
c gate 804 -802 -803 0
-802 -804 0
-803 -804 0
802 803 804 0
c gate 805 801 804 0
801 -805 0
804 -805 0
-801 -804 805 0
c gate 806 798 805 0
798 -806 0
805 -806 0
-798 -805 806 0
c gate 807 791 806 0
791 -807 0
806 -807 0
-791 -806 807 0
c gate 808 -773 -807 0
-773 -808 0
-807 -808 0
773 807 808 0
c gate 809 -776 -808 0
-776 -809 0
-808 -809 0
776 808 809 0
c gate 810 -775 809 0
-775 -810 0
809 -810 0
775 -809 810 0
c gate 811 -771 -810 0
-771 -811 0
-810 -811 0
771 810 811 0
c gate 812 -769 811 0
-769 -812 0
811 -812 0
769 -811 812 0
c gate 813 -765 812 0
-765 -813 0
812 -813 0
765 -812 813 0
c gate 814 -748 813 0
-748 -814 0
813 -814 0
748 -813 814 0
c gate 815 -742 814 0
-742 -815 0
814 -815 0
742 -814 815 0
c gate 816 -741 815 0
-741 -816 0
815 -816 0
741 -815 816 0
c gate 817 -737 816 0
-737 -817 0
816 -817 0
737 -816 817 0
c gate 818 -730 817 0
-730 -818 0
817 -818 0
730 -817 818 0
c gate 819 -725 818 0
-725 -819 0
818 -819 0
725 -818 819 0
c gate 820 -707 819 0
-707 -820 0
819 -820 0
707 -819 820 0
c gate 821 -713 820 0
-713 -821 0
820 -821 0
713 -820 821 0
c gate 822 -712 821 0
-712 -822 0
821 -822 0
712 -821 822 0
c PO
-822 0
